! PAL2
! mp2 cc-pvdz TightSCF  NoKeepInts

%scf
  MaxCore 512
end
%mp2
  MaxCore 512
end
* xyz 0 1
   C       -4.62000         5.39300         0.95900
   C        1.47400         4.04100         0.05700
   C       -2.80200         4.09300         0.04900
   C       -2.57200         5.14200        -0.85500
   C       -3.36400         6.27200        -0.82100
   C       -5.17900         7.62500         0.11000
   C        0.13200         4.30700         0.06100
   C       -0.56900         3.05600         0.04700
   C        1.64900         2.61800         0.02300
   C       -3.85200         4.24500         0.96800
   N       -4.37300         6.38500         0.07400
   N        0.38800         2.06700         0.02500
   N       -2.01000         0.39500        -0.07500
   N       -0.38800        -2.07400        -0.02700
   N        2.01000        -0.40100         0.06500
   C       -1.96000         2.86100         0.02400
   C       -2.62300         1.61500        -0.01800
   C       -5.57300        -4.32900         1.06600
   C       -4.07300         1.47100         0.05600
   C       -4.10600        -2.75600        -0.02600
   C       -4.99500        -2.75700        -1.11100
   C       -6.13200        -3.54200        -1.07600
   C       -7.65100        -5.11300         0.04000
   C       -4.32400         0.14100         0.03700
   C       -3.02500        -0.52000        -0.04800
   C       -4.42200        -3.56600         1.07500
   N       -6.40700        -4.31300         0.00100
   C       -2.86700        -1.92200        -0.04000
   C       -1.65000        -2.62400        -0.02700
   C        3.56800        -6.14200        -1.04000
   C       -1.47600        -4.04900        -0.03400
   C        2.80300        -4.09900        -0.00800
   C        3.65700        -4.38400         1.06900
   C        4.42700        -5.53000         1.05900
   C        5.24500        -7.58800         0.01400
   C       -0.13400        -4.31500        -0.02200
   C        0.56800        -3.06400        -0.02700
   C        2.77500        -5.01200        -1.07400
   N        4.37600        -6.39100         0.01700
   C        1.95900        -2.86900        -0.00900
   C        2.62100        -1.62200         0.00900
   C        5.54300         4.33900        -1.13000
   C        4.07000        -1.47900        -0.09400
   C        4.10400         2.75100        -0.02100
   C        5.02700         2.72900         1.03600
   C        6.16600         3.50900         0.97800
   C        7.61900         5.15300        -0.11500
   C        4.32100        -0.14800        -0.09200
   C        3.02500         0.51400         0.01500
   C        4.38700         3.58200        -1.11500
   C        2.86600         1.91600         0.01300
   N        6.41300         4.29600        -0.09500
   H       -5.44700         5.54800         1.64100
   H        2.27400         4.76600         0.08100
   H       -1.77100         5.08800        -1.58200
   H       -3.22000         7.11000        -1.49100
   H       -4.67500         8.35900         0.74300
   H       -5.27700         8.01000        -0.90500
   H       -6.16200         7.39200         0.51700
   H       -0.33200         5.28200         0.06900
   H       -4.08800         3.46500         1.68200
   H        0.18200         1.07200         0.00500
   H       -0.18300        -1.08000        -0.02100
   H       -5.86400        -4.96200         1.89500
   H       -4.79400         2.27200         0.13900
   H       -4.80000        -2.16000        -1.99400
   H       -6.84100        -3.58200        -1.89300
   H       -8.42800        -4.53600         0.54600
   H       -7.95600        -5.33700        -0.98100
   H       -7.45600        -6.03700         0.58400
   H       -5.28700        -0.34400         0.10000
   H       -3.78000        -3.60100         1.94700
   H        3.58700        -6.86800        -1.84300
   H       -2.27600        -4.77400        -0.05000
   H        3.71400        -3.72400         1.92600
   H        5.09200        -5.79500         1.87100
   H        6.20500        -7.32900        -0.43900
   H        5.39300        -7.91700         1.04200
   H        4.75900        -8.37300        -0.56400
   H        0.32900        -5.29000        -0.00800
   H        2.14600        -4.84200        -1.94000
   H        5.80800         4.98600        -1.95600
   H        4.78800        -2.28100        -0.18500
   H        4.86000         2.11400         1.91200
   H        6.90100         3.53100         1.77200
   H        7.38300         6.10900         0.35600
   H        8.41400         4.65200         0.43500
   H        7.92100         5.31000        -1.15000
   H        5.28300         0.33600        -0.17900
   H        3.72000         3.63200        -1.96700
*
