%nprocshared=32
%mem=20GB
%chk=POH.chk
# opt b3lyp/6-31g(d) scrf=(smd,solvent=water) nosymm pop=mk geom=connectivity iop(6/33=2,6/42=6)

POH

4 1
 C                 -3.58891600    6.09402600    1.14511700
 C                  1.47417300    4.04133600    0.05687500
 C                 -2.80184400    4.09326000    0.04886600
 C                 -3.64061700    4.41524000   -1.02930800
 C                 -4.41690000    5.55642600   -0.98660000
 C                 -5.20233500    7.61042300    0.08841700
 C                  0.13225000    4.30676900    0.06105900
 C                 -0.56888500    3.05595700    0.04679300
 C                  1.64860400    2.61756800    0.02319900
 C                 -2.78975400    4.96659900    1.14685400
 N                 -4.38733300    6.37512100    0.09012400
 N                  0.38754600    2.06686800    0.02508700
 N                 -2.01027800    0.39488900   -0.07500000
 N                 -0.38824200   -2.07446500   -0.02733900
 N                  2.01000600   -0.40078200    0.06476100
 C                 -1.95994300    2.86128200    0.02435400
 C                 -2.62251100    1.61538800   -0.01822100
 C                 -5.57315000   -4.32908900    1.06615000
 C                 -4.07268800    1.47139600    0.05610600
 C                 -4.10604800   -2.75624900   -0.02600000
 C                 -4.99462000   -2.75685000   -1.11135100
 C                 -6.13164300   -3.54169800   -1.07586700
 C                 -7.65076300   -5.11312600    0.04017400
 C                 -4.32359400    0.14092300    0.03705100
 C                 -3.02519500   -0.51979600   -0.04786300
 C                 -4.42183500   -3.56649200    1.07510000
 N                 -6.40651100   -4.31315800    0.00063500
 C                 -2.86680700   -1.92230400   -0.04007700
 C                 -1.64992600   -2.62439900   -0.02724900
 C                  3.56828100   -6.14247500   -1.03995100
 C                 -1.47602900   -4.04861300   -0.03425900
 C                  2.80258700   -4.09936900   -0.00765900
 C                  3.65652200   -4.38390500    1.06941800
 C                  4.42700900   -5.52984300    1.05918700
 C                  5.24542100   -7.58786600    0.01397300
 C                 -0.13438400   -4.31464800   -0.02214600
 C                  0.56770200   -3.06416100   -0.02683100
 C                  2.77490300   -5.01170100   -1.07363300
 N                  4.37576200   -6.39061500    0.01678300
 C                  1.95900100   -2.86894000   -0.00929200
 C                  2.62093500   -1.62174400    0.00872400
 C                  5.54268700    4.33921600   -1.12969000
 C                  4.06953100   -1.47889500   -0.09361800
 C                  4.10408000    2.75105600   -0.02084900
 C                  5.02713100    2.72919900    1.03577900
 C                  6.16630200    3.50880500    0.97759100
 C                  7.61893600    5.15285600   -0.11513500
 C                  4.32099200   -0.14843200   -0.09162000
 C                  3.02469800    0.51353200    0.01460300
 C                  4.38736900    3.58222200   -1.11516700
 C                  2.86647800    1.91618500    0.01261800
 N                  6.41253700    4.29614500   -0.09483200
 H                 -3.62141800    6.78918000    1.97467800
 H                  2.27424900    4.76605800    0.08060000
 H                 -3.68699200    3.78471900   -1.90906600
 H                 -5.07196400    5.85026800   -1.79661200
 H                 -4.63927600    8.40672700   -0.40279400
 H                 -6.12855000    7.41839200   -0.45228000
 H                 -5.42074200    7.88715200    1.11858600
 H                 -0.33216600    5.28152700    0.06893800
 H                 -2.17431100    4.76586900    2.01564000
 H                  0.18239800    1.07248200    0.00479400
 H                 -0.18273700   -1.07996000   -0.02102900
 H                 -5.86397800   -4.96166900    1.89499800
 H                 -4.79387500    2.27191700    0.13855900
 H                 -4.79995200   -2.15964100   -1.99413000
 H                 -6.84052400   -3.58223800   -1.89335400
 H                 -8.42757900   -4.53638700    0.54649300
 H                 -7.95623700   -5.33703800   -0.98061400
 H                 -7.45597700   -6.03688900    0.58403700
 H                 -5.28710600   -0.34422300    0.09955200
 H                 -3.77960200   -3.60059600    1.94701800
 H                  3.58681400   -6.86847300   -1.84328300
 H                 -2.27558200   -4.77411900   -0.04974400
 H                  3.71382400   -3.72373800    1.92648900
 H                  5.09166600   -5.79542300    1.87098700
 H                  6.20490400   -7.32919400   -0.43887300
 H                  5.39318100   -7.91672300    1.04190100
 H                  4.75903800   -8.37281400   -0.56351600
 H                  0.32884000   -5.28980200   -0.00751400
 H                  2.14632100   -4.84233300   -1.93967200
 H                  5.80783300    4.98614500   -1.95581500
 H                  4.78801400   -2.28096400   -0.18451000
 H                  4.86017900    2.11368500    1.91160100
 H                  6.90149300    3.53143200    1.77241100
 H                  7.38290500    6.10935000    0.35607900
 H                  8.41417200    4.65153900    0.43517100
 H                  7.92091000    5.30971500   -1.14980000
 H                  5.28312400    0.33558900   -0.17857200
 H                  3.72001100    3.63240500   -1.96719900

 1 10 2.0 11 1.5 53 1.0
 2 7 2.0 9 1.5 54 1.0
 3 4 1.5 10 1.5 16 1.0
 4 5 2.0 55 1.0
 5 11 1.5 56 1.0
 6 11 1.0 57 1.0 58 1.0 59 1.0
 7 8 1.5 60 1.0
 8 12 1.5 16 1.5
 9 12 1.5 51 1.5
 10 61 1.0
 11
 12 62 1.0
 13 17 1.5 25 1.5
 14 29 1.5 37 1.5 63 1.0
 15 41 1.5 49 1.5
 16 17 1.5
 17 19 1.0
 18 26 2.0 27 1.5 64 1.0
 19 24 2.0 65 1.0
 20 21 1.5 26 1.5 28 1.0
 21 22 2.0 66 1.0
 22 27 1.5 67 1.0
 23 27 1.0 68 1.0 69 1.0 70 1.0
 24 25 1.0 71 1.0
 25 28 1.5
 26 72 1.0
 27
 28 29 1.5
 29 31 1.5
 30 38 2.0 39 1.5 73 1.0
 31 36 2.0 74 1.0
 32 33 1.5 38 1.5 40 1.0
 33 34 2.0 75 1.0
 34 39 1.5 76 1.0
 35 39 1.0 77 1.0 78 1.0 79 1.0
 36 37 1.5 80 1.0
 37 40 1.5
 38 81 1.0
 39
 40 41 1.5
 41 43 1.0
 42 50 2.0 52 1.5 82 1.0
 43 48 2.0 83 1.0
 44 45 1.5 50 1.5 51 1.0
 45 46 2.0 84 1.0
 46 52 1.5 85 1.0
 47 52 1.0 86 1.0 87 1.0 88 1.0
 48 49 1.0 89 1.0
 49 51 1.5
 50 90 1.0
 51
 52
 53
 54
 55
 56
 57
 58
 59
 60
 61
 62
 63
 64
 65
 66
 67
 68
 69
 70
 71
 72
 73
 74
 75
 76
 77
 78
 79
 80
 81
 82
 83
 84
 85
 86
 87
 88
 89
 90

